p cnf 116 458
1 2 3 4 5 6 7 11 13 16 19 21 25 0
1 2 3 4 5 6 7 8 12 14 17 20 22 0
1 2 3 4 5 7 8 9 11 13 15 18 23 0
1 2 3 4 5 8 9 10 12 14 16 19 24 0
1 2 3 4 5 9 10 13 15 17 20 21 25 0
1 2 6 7 8 9 10 11 12 16 18 21 24 0
1 2 3 6 7 8 9 10 11 12 13 17 19 22 25 0
2 3 4 6 7 8 9 10 12 13 14 16 18 20 23 0
3 4 5 6 7 8 9 10 13 14 15 17 19 21 24 0
4 5 6 7 8 9 10 14 15 18 20 22 25 0
1 3 6 7 11 12 13 14 15 16 17 21 23 0
2 4 6 7 8 11 12 13 14 15 16 17 18 22 24 0
1 3 5 7 8 9 11 12 13 14 15 17 18 19 21 23 25 0
2 4 8 9 10 11 12 13 14 15 18 19 20 22 24 0
3 5 9 10 11 12 13 14 15 19 20 23 25 0
1 4 6 8 11 12 16 17 18 19 20 21 22 0
2 5 7 9 11 12 13 16 17 18 19 20 21 22 23 0
3 6 8 10 12 13 14 16 17 18 19 20 22 23 24 0
1 4 7 9 13 14 15 16 17 18 19 20 23 24 25 0
2 5 8 10 14 15 16 17 18 19 20 24 25 0
1 5 6 9 11 13 16 17 21 22 23 24 25 0
2 7 10 12 14 16 17 18 21 22 23 24 25 0
3 8 11 13 15 17 18 19 21 22 23 24 25 0
4 6 9 12 14 18 19 20 21 22 23 24 25 0
1 5 7 10 13 15 19 20 21 22 23 24 25 0
-13 -12 -5 0
-13 -12 -8 0
-13 -12 -10 0
-13 -12 -14 0
-13 -12 -15 0
-13 -12 -18 0
-13 -12 -20 0
-13 -12 -25 0
-13 -14 -8 0
-13 -14 -18 0
-13 -14 -6 0
-13 -14 -11 0
-13 -14 -1 0
-13 -14 -16 0
-13 -14 -21 0
-13 -18 -8 0
-13 -18 -1 0
-13 -18 -5 0
-13 -18 -3 0
-13 -18 -4 0
-13 -18 -2 0
-13 -4 -2 0
-13 -4 -10 0
-13 -4 -16 0
-13 -4 -24 0
-13 -6 -2 0
-13 -6 -10 0
-13 -6 -16 0
-13 -6 -24 0
-13 -20 -2 0
-13 -20 -10 0
-13 -20 -16 0
-13 -20 -24 0
-13 -22 -2 0
-13 -22 -10 0
-13 -22 -16 0
-13 -22 -24 0
-13 -22 -8 0
-13 -24 -8 0
-13 -9 -17 0
-13 -19 -7 0
-13 -21 -8 0
-13 -21 -5 0
-13 -25 -8 0
-13 -25 -1 0
-13 -23 -8 0
-7 -19 -9 0
-7 -19 -21 0
-7 -19 -25 0
-7 -19 -17 0
-7 -19 -1 0
-7 -19 -5 0
-7 -20 -24 0
-7 -12 -25 0
-7 -12 -17 0
-7 -14 -17 0
-7 -14 -21 0
-7 -9 -17 0
-7 -9 -18 0
-7 -9 -8 0
-7 -25 -8 0
-7 -10 -22 0
-7 -10 -21 0
-7 -5 -18 0
-7 -5 -22 0
-19 -6 -2 0
-19 -12 -5 0
-19 -12 -9 0
-19 -14 -9 0
-19 -14 -1 0
-19 -16 -4 0
-19 -16 -5 0
-19 -17 -18 0
-19 -17 -8 0
-19 -17 -9 0
-19 -1 -18 0
-19 -21 -8 0
-19 -21 -4 0
-1 -18 -14 0
-1 -18 -15 0
-1 -18 -3 0
-1 -18 -9 0
-1 -18 -5 0
-1 -18 -10 0
-1 -8 -23 0
-1 -8 -12 0
-1 -24 -9 0
-1 -24 -20 0
-1 -22 -10 0
-1 -22 -14 0
-1 -17 -14 0
-1 -17 -9 0
-1 -17 -20 0
-1 -23 -14 0
-1 -23 -15 0
-1 -15 -12 0
-1 -11 -14 0
-1 -21 -14 0
-2 -23 -8 0
-2 -23 -4 0
-2 -23 -6 0
-2 -15 -6 0
-2 -15 -22 0
-2 -25 -6 0
-2 -25 -17 0
-2 -21 -14 0
-2 -21 -20 0
-2 -22 -14 0
-2 -20 -17 0
-3 -24 -22 0
-3 -24 -20 0
-3 -24 -18 0
-3 -22 -18 0
-3 -22 -16 0
-3 -20 -16 0
-3 -25 -18 0
-3 -25 -12 0
-3 -25 -11 0
-3 -21 -18 0
-3 -21 -15 0
-3 -21 -14 0
-3 -23 -18 0
-3 -23 -8 0
-3 -5 -18 0
-4 -23 -10 0
-4 -23 -8 0
-4 -17 -10 0
-4 -21 -10 0
-4 -11 -10 0
-4 -11 -24 0
-4 -12 -24 0
-4 -12 -25 0
-4 -16 -25 0
-5 -12 -23 0
-5 -12 -17 0
-5 -12 -15 0
-5 -12 -24 0
-5 -12 -25 0
-5 -12 -18 0
-5 -17 -18 0
-5 -17 -9 0
-5 -6 -18 0
-5 -6 -24 0
-5 -8 -14 0
-5 -8 -23 0
-5 -22 -16 0
-5 -11 -14 0
-5 -11 -18 0
-5 -11 -23 0
-6 -15 -12 0
-6 -15 -16 0
-6 -9 -25 0
-6 -9 -24 0
-6 -23 -10 0
-6 -18 -10 0
-11 -14 -15 0
-11 -14 -10 0
-11 -14 -25 0
-11 -14 -20 0
-11 -14 -21 0
-11 -20 -10 0
-11 -20 -24 0
-11 -8 -25 0
-11 -12 -15 0
-16 -15 -12 0
-16 -15 -22 0
-16 -9 -22 0
-16 -8 -20 0
-16 -8 -25 0
-21 -8 -15 0
-21 -8 -9 0
-21 -8 -23 0
-21 -8 -25 0
-21 -8 -14 0
-21 -8 -20 0
-21 -9 -14 0
-21 -9 -17 0
-21 -18 -12 0
-21 -15 -12 0
-25 -8 -23 0
-25 -8 -17 0
-25 -8 -12 0
-25 -18 -14 0
-25 -9 -12 0
-25 -9 -17 0
-25 -15 -12 0
-43 31 47 0
-44 32 47 0
-45 33 47 0
-46 34 47 0
-37 31 47 0
-38 32 47 0
-39 33 47 0
-40 34 47 0
-37 -43 32 47 0
-37 -44 33 47 0
-37 -45 34 47 0
-37 -46 47 0
-38 -43 33 47 0
-38 -44 34 47 0
-38 -45 47 0
-38 -46 31 0
-39 -43 34 47 0
-39 -44 47 0
-39 -45 31 0
-39 -46 32 0
-40 -43 47 0
-40 -44 31 0
-40 -45 32 0
-40 -46 33 0
-47 26 0
-41 26 0
-47 -41 27 0
-42 27 0
-47 -42 28 0
-35 26 0
-47 -35 27 0
-36 27 0
-47 -36 28 0
-35 -41 27 0
-47 -35 -41 28 0
-35 -42 28 0
-47 -35 -42 29 0
-36 -41 28 0
-47 -36 -41 29 0
-36 -42 29 0
-47 -36 -42 30 0
-54 43 58 0
-55 44 58 0
-56 45 58 0
-57 46 58 0
-49 43 58 0
-50 44 58 0
-51 45 58 0
-52 46 58 0
-49 -54 44 58 0
-49 -55 45 58 0
-49 -56 46 58 0
-49 -57 58 0
-50 -54 45 58 0
-50 -55 46 58 0
-50 -56 58 0
-50 -57 43 0
-51 -54 46 58 0
-51 -55 58 0
-51 -56 43 0
-51 -57 44 0
-52 -54 58 0
-52 -55 43 0
-52 -56 44 0
-52 -57 45 0
-58 41 0
-53 41 0
-58 -53 42 0
-48 41 0
-58 -48 42 0
-48 -53 42 0
-58 -48 -53 0
-24 59 0
-62 59 0
-63 60 0
-62 -24 60 0
-63 -24 61 0
-25 62 0
-20 62 0
-20 -25 63 0
-21 64 0
-67 64 0
-68 65 0
-67 -21 65 0
-68 -21 66 0
-22 67 0
-23 67 0
-23 -22 68 0
-64 54 69 0
-65 55 69 0
-66 56 69 0
-59 54 69 0
-60 55 69 0
-61 56 69 0
-59 -64 55 69 0
-59 -65 56 69 0
-59 -66 57 69 0
-60 -64 56 69 0
-60 -65 57 69 0
-60 -66 69 0
-61 -64 57 69 0
-61 -65 69 0
-61 -66 54 0
-69 53 0
-4 70 0
-73 70 0
-74 71 0
-73 -4 71 0
-74 -4 72 0
-3 73 0
-8 73 0
-8 -3 74 0
-15 75 0
-78 75 0
-79 76 0
-78 -15 76 0
-79 -15 77 0
-10 78 0
-5 78 0
-5 -10 79 0
-75 49 80 0
-76 50 80 0
-77 51 80 0
-70 49 80 0
-71 50 80 0
-72 51 80 0
-70 -75 50 80 0
-70 -76 51 80 0
-70 -77 52 80 0
-71 -75 51 80 0
-71 -76 52 80 0
-71 -77 80 0
-72 -75 52 80 0
-72 -76 80 0
-72 -77 49 0
-80 48 0
-87 37 91 0
-88 38 91 0
-89 39 91 0
-90 40 91 0
-82 37 91 0
-83 38 91 0
-84 39 91 0
-85 40 91 0
-82 -87 38 91 0
-82 -88 39 91 0
-82 -89 40 91 0
-82 -90 91 0
-83 -87 39 91 0
-83 -88 40 91 0
-83 -89 91 0
-83 -90 37 0
-84 -87 40 91 0
-84 -88 91 0
-84 -89 37 0
-84 -90 38 0
-85 -87 91 0
-85 -88 37 0
-85 -89 38 0
-85 -90 39 0
-91 35 0
-86 35 0
-91 -86 36 0
-81 35 0
-91 -81 36 0
-81 -86 36 0
-91 -81 -86 0
-18 92 0
-95 92 0
-96 93 0
-95 -18 93 0
-96 -18 94 0
-13 95 0
-12 95 0
-12 -13 96 0
-9 97 0
-100 97 0
-101 98 0
-100 -9 98 0
-101 -9 99 0
-14 100 0
-19 100 0
-19 -14 101 0
-97 87 102 0
-98 88 102 0
-99 89 102 0
-92 87 102 0
-93 88 102 0
-94 89 102 0
-92 -97 88 102 0
-92 -98 89 102 0
-92 -99 90 102 0
-93 -97 89 102 0
-93 -98 90 102 0
-93 -99 102 0
-94 -97 90 102 0
-94 -98 102 0
-94 -99 87 0
-102 86 0
-109 103 0
-110 104 0
-107 103 0
-108 104 0
-107 -109 104 0
-107 -110 105 0
-108 -109 105 0
-108 -110 106 0
-6 109 0
-7 109 0
-7 -6 110 0
-2 107 0
-1 107 0
-1 -2 108 0
-17 111 0
-114 111 0
-115 112 0
-114 -17 112 0
-115 -17 113 0
-16 114 0
-11 114 0
-11 -16 115 0
-111 82 116 0
-112 83 116 0
-113 84 116 0
-103 82 116 0
-104 83 116 0
-105 84 116 0
-106 85 116 0
-103 -111 83 116 0
-103 -112 84 116 0
-103 -113 85 116 0
-104 -111 84 116 0
-104 -112 85 116 0
-104 -113 116 0
-105 -111 85 116 0
-105 -112 116 0
-105 -113 82 0
-106 -111 116 0
-106 -112 82 0
-106 -113 83 0
-116 81 0
-26 0
-27 0
-28 0
-29 0
-30 0
-34 0
